% Data file generated from RandomInstances/14_0.75_3.col DIMACS file
size = 14;

chi = 8;

adjacency = [|0,0,1,1,1,1,0,1,1,1,1,1,1,1,
|0,0,1,1,0,1,1,1,1,0,0,1,1,0,
|1,1,0,1,1,0,1,0,1,1,1,1,1,0,
|1,1,1,0,1,1,1,1,1,1,1,1,0,1,
|1,0,1,1,0,1,0,1,1,1,1,1,1,1,
|1,1,0,1,1,0,1,1,1,1,1,0,0,1,
|0,1,1,1,0,1,0,1,1,1,0,1,1,1,
|1,1,0,1,1,1,1,0,1,0,0,1,1,1,
|1,1,1,1,1,1,1,1,0,1,1,1,1,1,
|1,0,1,1,1,1,1,0,1,0,1,1,1,0,
|1,0,1,1,1,1,0,0,1,1,0,0,1,1,
|1,1,1,1,1,0,1,1,1,1,0,0,0,1,
|1,1,1,0,1,0,1,1,1,1,1,0,0,1,
|1,0,0,1,1,1,1,1,1,0,1,1,1,0,
|];